\ Generated by MPModelProtoExporter
\   Name             : 
\   Format           : Free
\   Constraints      : 24
\   Variables        : 24
\     Binary         : 0
\     Integer        : 24
\     Continuous     : 0
Minimize
 Obj: +1 x0 +1 x1 +1 x2 +1 x3 +1 x4 +1 x5 +1 x6 +1 x7 +1 x8 +1 x9 +1 x10 +1 x11 +1 x12 +1 x13 +1 x14 +1 x15 +1 x16 +1 x17 +1 x18 +1 x19 +1 x20 +1 x21 +1 x22 +1 x23 
Subject to
 auto_c_000000000: +1 x0 +1 x16 +1 x17 +1 x18 +1 x19 +1 x21 +1 x22 +1 x23  >= 2
 auto_c_000000001: +1 x0 +1 x1 +1 x17 +1 x18 +1 x19 +1 x20 +1 x22 +1 x23  >= 2
 auto_c_000000002: +1 x0 +1 x1 +1 x2 +1 x18 +1 x19 +1 x20 +1 x21 +1 x23  >= 2
 auto_c_000000003: +1 x0 +1 x1 +1 x2 +1 x3 +1 x19 +1 x20 +1 x21 +1 x22  >= 2
 auto_c_000000004: +1 x1 +1 x2 +1 x3 +1 x4 +1 x20 +1 x21 +1 x22 +1 x23  >= 2
 auto_c_000000005: +1 x0 +1 x2 +1 x3 +1 x4 +1 x5 +1 x21 +1 x22 +1 x23  >= 2
 auto_c_000000006: +1 x0 +1 x1 +1 x3 +1 x4 +1 x5 +1 x6 +1 x22 +1 x23  >= 8
 auto_c_000000007: +1 x0 +1 x1 +1 x2 +1 x4 +1 x5 +1 x6 +1 x7 +1 x23  >= 8
 auto_c_000000008: +1 x0 +1 x1 +1 x2 +1 x3 +1 x5 +1 x6 +1 x7 +1 x8  >= 8
 auto_c_000000009: +1 x1 +1 x2 +1 x3 +1 x4 +1 x6 +1 x7 +1 x8 +1 x9  >= 8
 auto_c_000000010: +1 x2 +1 x3 +1 x4 +1 x5 +1 x7 +1 x8 +1 x9 +1 x10  >= 4
 auto_c_000000011: +1 x3 +1 x4 +1 x5 +1 x6 +1 x8 +1 x9 +1 x10 +1 x11  >= 4
 auto_c_000000012: +1 x4 +1 x5 +1 x6 +1 x7 +1 x9 +1 x10 +1 x11 +1 x12  >= 3
 auto_c_000000013: +1 x5 +1 x6 +1 x7 +1 x8 +1 x10 +1 x11 +1 x12 +1 x13  >= 3
 auto_c_000000014: +1 x6 +1 x7 +1 x8 +1 x9 +1 x11 +1 x12 +1 x13 +1 x14  >= 3
 auto_c_000000015: +1 x7 +1 x8 +1 x9 +1 x10 +1 x12 +1 x13 +1 x14 +1 x15  >= 3
 auto_c_000000016: +1 x8 +1 x9 +1 x10 +1 x11 +1 x13 +1 x14 +1 x15 +1 x16  >= 6
 auto_c_000000017: +1 x9 +1 x10 +1 x11 +1 x12 +1 x14 +1 x15 +1 x16 +1 x17  >= 6
 auto_c_000000018: +1 x10 +1 x11 +1 x12 +1 x13 +1 x15 +1 x16 +1 x17 +1 x18  >= 5
 auto_c_000000019: +1 x11 +1 x12 +1 x13 +1 x14 +1 x16 +1 x17 +1 x18 +1 x19  >= 5
 auto_c_000000020: +1 x12 +1 x13 +1 x14 +1 x15 +1 x17 +1 x18 +1 x19 +1 x20  >= 5
 auto_c_000000021: +1 x13 +1 x14 +1 x15 +1 x16 +1 x18 +1 x19 +1 x20 +1 x21  >= 5
 auto_c_000000022: +1 x14 +1 x15 +1 x16 +1 x17 +1 x19 +1 x20 +1 x21 +1 x22  >= 3
 auto_c_000000023: +1 x15 +1 x16 +1 x17 +1 x18 +1 x20 +1 x21 +1 x22 +1 x23  >= 3
Bounds
 0 <= x0 <= inf
 0 <= x1 <= inf
 0 <= x2 <= inf
 0 <= x3 <= inf
 0 <= x4 <= inf
 0 <= x5 <= inf
 0 <= x6 <= inf
 0 <= x7 <= inf
 0 <= x8 <= inf
 0 <= x9 <= inf
 0 <= x10 <= inf
 0 <= x11 <= inf
 0 <= x12 <= inf
 0 <= x13 <= inf
 0 <= x14 <= inf
 0 <= x15 <= inf
 0 <= x16 <= inf
 0 <= x17 <= inf
 0 <= x18 <= inf
 0 <= x19 <= inf
 0 <= x20 <= inf
 0 <= x21 <= inf
 0 <= x22 <= inf
 0 <= x23 <= inf
Generals
 x0
 x1
 x2
 x3
 x4
 x5
 x6
 x7
 x8
 x9
 x10
 x11
 x12
 x13
 x14
 x15
 x16
 x17
 x18
 x19
 x20
 x21
 x22
 x23
End
